%chk=methionine_b3lyp_6-31G.chk
%mem=4GB
%NProcShared=2
#n B3LYP/6-31G(d) Opt integral=ultrafine SCF=Tight

Methionine: B3LYP/6-31G(d) optimisation

0 1
C         -4.12973        1.61384        0.32408
S         -2.51130        2.09738        0.96568
H         -4.56526        0.83734        0.95753
H         -4.06351        1.26091       -0.70758
H         -4.79023        2.48610        0.34849
C         -1.46639        0.76646        0.26927
C         -0.04600        0.93589        0.81701
H         -1.47888        0.84703       -0.82233
H         -1.87651       -0.20663        0.55802
C          1.05544        0.24588       -0.00114
H         -0.01015        0.59455        1.86003
H          0.20104        2.00638        0.83926
N          0.96411       -1.24277       -0.04629
H         -0.01749       -1.52476       -0.01226
H          1.28258       -1.55397       -0.97103
C          2.43296        0.64019        0.58611
H          1.03489        0.61144       -1.03420
O          3.24357       -0.44144        0.73318
O          2.78072        1.77173        0.87090
H          2.68210       -1.22886        0.53789
