%NProcShared=8
%mem=28GB
%Chk=job.chk
#p B3LYP/6-31G(d) Opt

 methionine

0 1
C     -3.529295   -0.276743   -0.136650
S     -2.143709    0.872282   -0.322621
H     -4.434139    0.288092    0.102995
H     -3.693096   -0.817292   -1.072320
H     -3.344214   -0.990206    0.670630
C     -0.772268   -0.281323   -0.001504
C      0.568055    0.440203   -0.133925
H     -0.887574   -0.678888    1.011975
H     -0.836684   -1.109750   -0.713425
C      1.742570   -0.397090    0.388426
H      0.743847    0.719332   -1.181913
H      0.537995    1.381374    0.431908
N      2.025215   -1.589717   -0.464524
H      2.593239   -2.240401    0.091580
C      3.006294    0.480834    0.424426
H      1.154890   -2.099922   -0.628637
H      1.551974   -0.745020    1.410009
O      3.203898    1.397119    1.206458
O      3.885887    0.120265   -0.546447
H      3.459162   -0.628124   -1.033230

