%chk=methionine_HF_6-31G.chk
%nprocshared=4
# HF/6-31G(d) Opt SCF=Tight


Methionine: HF/6-31G(d) optimisation

0 1
C         -1.90299        4.31739       -0.12249
S         -0.43991        5.36957       -0.21552
H         -1.95166        3.64846       -0.98453
H         -2.78974        4.95919       -0.13641
H         -1.91235        3.74096        0.80524
C          0.89407        4.11699       -0.08256
C          2.22263        4.86598       -0.20746
H          0.78116        3.38284       -0.88633
H          0.81666        3.60860        0.88350
C          3.50691        4.08654        0.14057
H          2.18959        5.73329        0.46759
H          2.31222        5.27040       -1.22517
C          4.70214        5.07275        0.02579
N          3.71231        2.89567       -0.71404
H          3.46017        3.76064        1.18622
H          4.43804        2.27999       -0.35775
H          2.86983        2.31884       -0.69841
O          5.91672        4.47473        0.02503
H          5.84283        3.50806       -0.02119
O          4.60353        6.29398        0.01168
